Gurobi Optimizer version 9.1.2 build v9.1.2rc0 (linux64)
Thread count: 36 physical cores, 72 logical processors, using up to 32 threads
Optimize a model with 12 rows, 57 columns and 590 nonzeros
Model fingerprint: 0xf32eec78
Model has 47 quadratic constraints
Coefficient statistics:
  Matrix range     [2e-05, 3e+00]
  QMatrix range    [1e+00, 1e+00]
  QLMatrix range   [1e+00, 1e+00]
  Objective range  [8e-03, 7e-01]
  Bounds range     [1e+00, 1e+00]
  RHS range        [1e+00, 1e+00]
Presolve removed 9 rows and 0 columns

Continuous model is non-convex -- solving as a MIP.

Presolve removed 9 rows and 0 columns
Presolve time: 0.00s
Presolved: 189 rows, 57 columns, 443 nonzeros
Presolved model has 47 bilinear constraint(s)
Variable types: 57 continuous, 0 integer (0 binary)

Root relaxation: objective -1.743721e+00, 44 iterations, 0.00 seconds

    Nodes    |    Current Node    |     Objective Bounds      |     Work
 Expl Unexpl |  Obj  Depth IntInf | Incumbent    BestBd   Gap | It/Node Time

     0     0   -1.74372    0   38          -   -1.74372      -     -    0s
H    0     0                       0.6147548   -1.74372   384%     -    0s
     0     0   -1.64739    0    1    0.61475   -1.64739   368%     -    0s
H    0     0                      -1.6450460   -1.64739  0.14%     -    0s
     0     0     cutoff    0        -1.64505   -1.64505  0.00%     -    0s

Cutting planes:
  RLT: 25
  BQP: 3

Explored 1 nodes (76 simplex iterations) in 0.01 seconds
Thread count was 32 (of 72 available processors)

Solution count 2: -1.64505 0.614755 
No other solutions better than -1.64505

Optimal solution found (tolerance 1.00e-04)
Best objective -1.645045978473e+00, best bound -1.645045978473e+00, gap 0.0000%

User-callback calls 78, time in user-callback 0.00 sec
Gurobi Optimizer version 9.1.2 build v9.1.2rc0 (linux64)
Thread count: 36 physical cores, 72 logical processors, using up to 32 threads
Optimize a model with 60 rows, 312 columns and 16100 nonzeros
Model fingerprint: 0xe7738bc4
Model has 262 quadratic constraints
Coefficient statistics:
  Matrix range     [4e-07, 7e+00]
  QMatrix range    [1e+00, 1e+00]
  QLMatrix range   [1e+00, 1e+00]
  Objective range  [7e-03, 2e+00]
  Bounds range     [1e+00, 1e+00]
  RHS range        [1e+00, 1e+00]
Presolve removed 15 rows and 0 columns

Continuous model is non-convex -- solving as a MIP.

Presolve removed 15 rows and 0 columns
Presolve time: 0.01s
Presolved: 1081 rows, 312 columns, 13448 nonzeros
Presolved model has 262 bilinear constraint(s)
Variable types: 312 continuous, 0 integer (0 binary)

Root relaxation: objective -3.772654e+01, 354 iterations, 0.02 seconds

    Nodes    |    Current Node    |     Objective Bounds      |     Work
 Expl Unexpl |  Obj  Depth IntInf | Incumbent    BestBd   Gap | It/Node Time

     0     0  -37.72654    0   85          -  -37.72654      -     -    0s
     0     0  -35.78567    0   82          -  -35.78567      -     -    0s
     0     0  -35.73871    0   74          -  -35.73871      -     -    0s
     0     0  -35.66618    0   74          -  -35.66618      -     -    0s
     0     0  -35.66574    0   74          -  -35.66574      -     -    0s
     0     0  -35.65941    0   74          -  -35.65941      -     -    0s
     0     0  -35.65770    0   74          -  -35.65770      -     -    0s
     0     0  -35.65670    0   82          -  -35.65670      -     -    0s
     0     0  -35.65115    0   74          -  -35.65115      -     -    0s
     0     0  -35.64980    0   74          -  -35.64980      -     -    0s
     0     0  -35.64895    0   74          -  -35.64895      -     -    0s
     0     0  -35.64858    0   74          -  -35.64858      -     -    0s
     0     0  -35.64833    0   65          -  -35.64833      -     -    0s
     0     0  -35.64827    0   74          -  -35.64827      -     -    0s
     0     0  -35.64807    0   69          -  -35.64807      -     -    0s
     0     0  -35.64800    0   69          -  -35.64800      -     -    0s
     0     2  -35.64800    0   69          -  -35.64800      -     -    0s
* 2254  1970              53     -32.3748272  -34.18454  5.59%  43.1    1s
* 2255  1970              53     -32.3748277  -34.18454  5.59%  43.1    1s
* 2713  1888              54     -32.9374624  -34.07444  3.45%  41.5    1s
* 2723  1888              52     -33.3881781  -34.07444  2.06%  41.4    1s
*10082  1674              50     -33.3884803  -33.43150  0.13%  29.5    4s
*10083  1674              50     -33.3884966  -33.43150  0.13%  29.5    4s
*10115  1674              48     -33.3886474  -33.43150  0.13%  29.4    4s
 12124  1730  -33.40243   24   32  -33.38865  -33.42286  0.10%  27.1    5s
*12151  1730              55     -33.3887963  -33.41931  0.09%  27.1    5s
*12152  1730              55     -33.3887983  -33.41931  0.09%  27.1    5s
*12499  1730              47     -33.3902738  -33.41860  0.08%  26.6    5s
*12500  1730              47     -33.3902961  -33.41860  0.08%  26.6    5s
*12502  1730              47     -33.3903303  -33.41860  0.08%  26.6    5s
*13100  1655              54     -33.3904527  -33.41805  0.08%  26.1    5s
*13103  1655              54     -33.3904529  -33.41805  0.08%  26.1    5s
*13463  1642              55     -33.3907117  -33.41204  0.06%  25.8    5s
*13997  1642              54     -33.3907267  -33.41010  0.06%  25.4    5s
*14000  1642              54     -33.3907394  -33.41010  0.06%  25.4    5s
*14001  1642              54     -33.3907396  -33.41010  0.06%  25.4    5s
*15143  1703              54     -33.3907500  -33.40632  0.05%  24.4    5s
*15163  1703              53     -33.3908518  -33.40632  0.05%  24.4    5s
*15164  1703              53     -33.3908707  -33.40632  0.05%  24.4    5s
*15167  1703              53     -33.3909034  -33.40632  0.05%  24.4    5s
*15648  1735              55     -33.3911164  -33.40303  0.04%  24.0    5s
*15649  1735              55     -33.3911164  -33.40303  0.04%  24.0    5s
*15651  1735              53     -33.3911315  -33.40303  0.04%  24.0    5s
*16427  1770              54     -33.3912933  -33.40095  0.03%  23.3    5s
*16428  1770              54     -33.3913016  -33.40095  0.03%  23.3    5s
*16432  1770              54     -33.3914442  -33.40095  0.03%  23.3    5s
*16433  1770              53     -33.3914829  -33.40095  0.03%  23.3    5s
*16815  1770              55     -33.3916146  -33.40095  0.03%  23.0    5s
*16817  1770              56     -33.3916245  -33.40095  0.03%  23.0    5s
*17329  1725              53     -33.3917815  -33.39937  0.02%  22.6    5s
*17380  1725              53     -33.3919089  -33.39937  0.02%  22.6    5s
*17385  1725              54     -33.3920498  -33.39937  0.02%  22.6    5s
*18469  1628              55     -33.3921190  -33.39825  0.02%  21.8    6s
*18472  1628              55     -33.3921404  -33.39825  0.02%  21.8    6s
*18993  1436              54     -33.3921776  -33.39656  0.01%  21.4    6s
*19116  1436              54     -33.3921871  -33.39631  0.01%  21.3    6s
*19485  1436              54     -33.3921922  -33.39593  0.01%  21.0    6s

Cutting planes:
  RLT: 17
  PSD: 91

Explored 19887 nodes (414309 simplex iterations) in 6.30 seconds
Thread count was 32 (of 72 available processors)

Solution count 10: -33.3922 -33.3922 -33.3922 ... -33.3916

Optimal solution found (tolerance 1.00e-04)
Best objective -3.339219223592e+01, best bound -3.339510398999e+01, gap 0.0087%

User-callback calls 40636, time in user-callback 0.01 sec



objective value: -33.392192235924504
objective bound: -33.39510398998574
x_opt: [1.0000000000000002, 0.9146064664950515, 0.0, 0.35417325330006727, 0.0, 0.0, 1.0000000000000002, 0.0, 0.0, 0.0, 1.0, 0.0, 1.0, 1.0, 0.46120518483949774, 1.0, 0.0, 1.0, 0.0, 0.0, 0.0, 0.2107374118682367, 0.0, 0.5550393578894246, 0.0, 0.6097402845576032, 0.0, 1.0, 0.0, 0.0, 1.0, 1.0, 0.0, 0.6223005589477975, 1.0, 0.9093800715965316, 0.0, 1.0, 0.0, 0.9999999999999998, 1.0, 0.0, 0.9255363578799156, 0.10762454026393155, 0.0, 0.0, 0.42223230168139125, 0.3915234088098187, 0.16634178752585072, 0.0]
GUROBI solution time: 6.297574996948242




